N = 5;
H = 5;
T = 2;

avail = array3d(1..N, 1..H, 1..T, [0, 3, 5, 6, 5, 0, 0, 1, 0, 7, 2, 10, 1, 8, 10, 9, 1, 9, 10, 10, 2, 5, 0, 6, 3, 9, 4, 7, 7, 9, 0, 4, 3, 3, 1, 1, 7, 4, 8, 9, 6, 0, 9, 8, 6, 0, 2, 9, 1, 9]);

r = array2d(1..H, 1..T, [1, 0, 2, 0, 1, 2, 1, 2, 1, 1]);
